NAME : pr 10 2024-07-24
COMMENT : 10-city problem (Random Generated)
TYPE : TSP
DIMENSION : 10
EDGE_WEIGHT_TYPE : EUC_2D
NODE_COORD_SECTION
1 4775.8967 8495.7351
2 7819.3053 9064.0781
3 9960.5102 6295.5553
4 9398.6664 3386.5948
5 8499.4139 9650.0486
6 8367.1234 6243.5009
7 4519.2915 5732.0662
8 8835.9345 5551.3394
9 1361.3706 555.1185
10 9876.2312 9817.1054
